NAME : pairopt.-189629.tour
COMMENT : Length = -189629
COMMENT : Found by LKH-3 [Keld Helsgaun] Wed May 14 16:48:37 2025
TYPE : TOUR
DIMENSION : 53
TOUR_SECTION
1
2
18
20
25
27
26
29
50
49
44
34
32
40
43
42
41
38
30
37
22
36
35
33
39
21
31
15
16
17
23
19
48
52
53
3
13
14
12
11
10
9
8
7
6
5
4
28
24
51
46
47
45
-1
EOF
